8,5	0,0	10,5	9,5	0,0	0,0	0,0	0,0	0,0	17,1
11,4	6,2	0,0	6,7	6,6	0,0	0,0	16,7	0,0	0,0
0,0	0,0	10,1	0,0	19,8	18,4	0,0	0,0	18,9	0,0
5,5	0,0	12,4	0,0	0,0	0,0	12,1	0,0	0,0	0,0
0,0	14,3	0,0	13,5	15,6	0,0	0,0	8,7	0,0	0,0
0,0	20,0	10,4	0,0	17,2	12,8	0,0	0,0	13,8	0,0
0,0	14,2	0,0	13,3	0,0	0,0	15,4	0,0	0,0	12,2
10,0	0,0	14,4	0,0	0,0	0,0	0,0	0,0	0,0	10,1
0,0	11,3	0,0	5,5	15,5	0,0	0,0	6,1	0,0	0,0
0,0	0,0	9,6	0,0	0,0	18,6	14,1	0,0	0,0	13,1
0,0	13,3	0,0	0,0	15,5	0,0	17,1	0,0	17,0	5,3
19,1	0,0	10,4	0,0	16,1	0,0	17,2	7,2	18,9	0,0
0,0	6,4	0,0	0,0	0,0	13,7	0,0	19,0	8,8	8,3
9,8	13,8	15,3	0,0	0,0	14,4	0,0	10,4	9,0	0,0
12,0	0,0	18,6	0,0	11,9	18,6	6,2	20,0	0,0	0,0
0,0	12,2	0,0	19,3	0,0	17,2	0,0	11,3	0,0	0,0
17,9	0,0	18,1	19,4	5,5	0,0	0,0	12,9	0,0	0,0
0,0	0,0	20,0	0,0	0,0	11,1	16,2	0,0	5,5	12,9
13,7	0,0	0,0	10,0	19,8	13,7	8,2	13,0	0,0	5,8
0,0	6,9	0,0	7,8	0,0	0,0	10,1	0,0	12,2	19,9
									
3,6	3,2	3,5	3,2	4,7	3,9	2,7	4,7	3,6	4,1
